units metal
dimension 3
boundary p p p

lattice fcc 3.5440 
region box block 0 7 0 7 0 7 units lattice
create_box 1 box

read_data solid_400.in add append shift 0 0 3

read_data liquid_6000.in add append shift 0 0 33

# read_restart file flag
variable P equal 50000
variable dt equal 0.001

variable sys_press equal "press/10000"
variable sim string "heating"
#variable temp_word equal "heating"

# print "step temp vol pe" file heating.txt screen no 

pair_style eam/alloy
pair_coeff * * Co_Zhou04.eam.alloy Co



write_data ini_two_phase.in
neighbor 2 bin
neigh_modify every 10 check yes

# compute myPress all pressure "press/10000"
thermo 500
thermo_style custom step temp vol press v_sys_press ke pe density
# thermo_modify press myPress

timestep $(dt)
variable T equal 1950
# write_data mixed.in
# run 0 
velocity all create $T 89347

# print """

# yo aagadi

# """
# label ensemble

# print """

# Label pachadi solti, hos garam.

# """
# # variable T equal 3700+${loopVar}*100
# variable T equal 2000


# reset_timestep 0
fix 1 all npt temp $T $T $(dt*100) iso $P $P $(dt*1000)
print """
<--------------------------------------------------------------------->
<------------------ Equilibrating at temperature $T ----------------->
<--------------------------------------------------------------------->
"""

fix temp all print 1000 "$(step) $(temp) $(press) ${sys_press} $(vol) $(ke) $(pe) $(density)" file temp_two_phase_.txt screen no title  "step temp press pressGiga vol ke pe density"
dump 3 all custom 1000 two_phase_press_$P_$TK_.lammpstrj id type x y z 
run 2000


# # fix 132 all momentum 100 linear 1 1 1 angular
# fix out_file_1 all print 1000 "$(step) $(temp) $(press) ${sys_press} $(vol) $(ke) $(pe) $(density)" file two_phase_press_$P_$T_.txt screen no title  "step temp press pressGiga vol ke pe density"


# run 10000

# unfix temp
# unfix out_file_1


write_data two_phase_press_$P_$T_.in
write_restart two_phase_press_$P_$T_ini.lmp 
# next loopVar
# jump in.lmp ensemble
























