units metal
dimension 3
boundary p p p


lattice fcc 3.5440 
region box block 0 7 0 7 0 7 units lattice
create_box 1 box
create_atoms 1 box 


#read_restart after_heating.lmp

variable P equal 0
variable dt equal 0.001
variable loopVar loop 21

# print "step temp vol pe" file heating.txt screen no 

pair_style eam/alloy
pair_coeff * * Co_Zhou04.eam.alloy Co




neighbor 2 bin
neigh_modify every 10 check yes

thermo 1000
thermo_style custom step temp vol press ke pe density

timestep $(dt)

# fix 2 all npt temp 300 300 $(dt*100) iso 0 0 $(dt*1000)
# run 30000
# unfix 2

 



# dump_modify 1 append yes 
# dump 3 all custom 10000 traj_npt_new.lammpstrj id type x y z 


label ensemble



variable T equal 2500-${loopVar}*100
velocity all create $T 123123
reset_timestep 0
fix 1 all npt temp $T $T $(dt*100) iso 0 0 $(dt*1000)
print """
<--------------------------------------------------------------------->
<------------------ Equilibrating at temperature $T ----------------->
<--------------------------------------------------------------------->
"""
run 150000

fix out_file_1 all print 1000 "$(step) $(temp) $(press) $(vol) $(ke) $(pe) $(density)" file one_phase_cooling_$T.txt screen no title  "step temp press vol ke pe density"
# dump 3 all custom 1000 traj_npt_new.lammpstrj id type x y z 
run 50000

unfix out_file_1
unfix 1 
# # clear
# write_data after_cooling_$T.in
# write_restart after_cooling_$T.lmp 
next loopVar
# # thermo_modify flush yes
jump in.lmp ensemble
# jump ensemble


# write_data after_cooling_.in
# write_restart after_cooling_.lmp 






















