variable file_name string "nvt_octane_ua_graphene.dat"
variable log_file_name string "nvt_octane_ua_graphene.log"
variable dump_file_name string "nvt_octane_ua_graphene.lammpstrj"

log ${log_file_name}

units real
boundary p p p
atom_style full
pair_style  lj/cut 13.0

bond_style      harmonic
angle_style     harmonic
dihedral_style opls



# read_restart complete_sim_restart_6000000.in remap
read_data in.data
include oil_graphene.ff

variable  dt equal 1
variable Temp equal 340.0
variable Press equal 100.0
group oil type 2:3
group graphene type 1
group  upper_graphene id 617:1232
group lower_graphene id 1:616
group dilate_group union oil upper_graphene 

# variable left_y_min equal 2.0213600000000001e-01-1.0
variable left_y_max equal 2.0213600000000001e-01-1.0
variable right_y_min equal 5.9842036000000000e+01+1.0
# variable right_y_max equal 5.9842036000000000e+01+1.0

# region leftwall block INF INF INF INF ${left_y_min} ${left_y_max} units box
# region rightwall block INF INF INF INF ${right_y_min} ${right_y_max} units box
# region box block 0 $(lx) 0 $(ly) 0 $(lz) units box

# region sim_box union 3 leftwall rightwall box
# group all_atoms region sim_box
# group all_except_graphene subtract all_atoms graphene

# velocity oil create ${Temp} 53244 dist gaussian mom yes rot yes
# delete_atoms group graphene bond yes mol yes

# variable yscale    equal 1.2
# variable vylo        equal ylo
# variable vyhi        equal yhi
# variable yhi_new  equal yhi*${yscale}
# variable ylo_new  equal ylo*${yscale}
# print "--> BOX FROM [ylo,yhi] = [${vylo}, ${vyhi}]  to [${ylo_new},${yhi_new}]"
# change_box all y final ${ylo_new} ${yhi_new} remap units box 
read_data graphene_wall.in add append offset 3 0 1 1 0 shift 27 -1 0
# group co2 type 4
read_data co2.in add append offset 3 1 1 1 0  shift 0 63 25
write_data temp.data
run 0
# # set group upper_graphene vz 0.0
# neighbor 2 bin 
# neigh_modify exclude group graphene graphene
# # # neigh_modify exclude molecule/intra oil
# neigh_modify exclude molecule/intra graphene
# neigh_modify  delay 0 every 10 check yes



# timestep ${dt}
# balance 1.1 shift xyz 10 1.1
# # fix setfhi upper_graphene setforce 0.0 0.0 NULL 
# # # variable Sz equal lx*ly
# # # variable fz equal (${Press}*${Sz}*4.0196E-13/count(upper_graphene))
# # fix avefhi upper_graphene aveforce NULL  NULL -0.00382
# # fix setflo lower_graphene setforce 0.0 0.0 0.0

# compute vor_vol_atom oil voronoi/atom only_group 
# compute vor_vol oil reduce sum c_vor_vol_atom[1]
# # variable vor_vol_var eqia; args


# compute        stress_per_oil_atom oil stress/atom NULL
# compute        p oil reduce sum c_stress_per_oil_atom[1] c_stress_per_oil_atom[2] c_stress_per_oil_atom[3]
# variable       oil_press_stress equal -(c_p[1]+c_p[2]+c_p[3])/(3*vol)


# variable       oil_press_stress_vor equal -(c_p[1]+c_p[2]+c_p[3])/(3*c_vor_vol)


# compute oil_temp oil temp
# variable oilTemp equal c_oil_temp

# compute      oil_press all pressure oil_temp
# variable oilPress equal c_oil_press 



# thermo          1000
# thermo_style    custom step temp c_oil_temp press c_oil_press v_oil_press_stress v_oil_press_stress_vor pe etotal   
# # thermo_modify   norm no



# fix repulsive_wall oil wall/lj93  ylo -0.9 1.0 1.0 1.122 yhi 65.5 1.0 1.0 1.122 pbc yes

# fix   nvt_1  oil nvt temp ${Temp} ${Temp} $(dt*100) 
# fix_modify   nvt_1 temp oil_temp 

# dump 2 all custom 5000 ${dump_file_name} id mol type x y z 
# # dump_modify 2 sort id
  



# fix txt_file_nvt all print 1000 "$(step)  $(temp) ${oilTemp} $(press) ${oilPress} ${oil_press_stress} ${oil_press_stress_vor}  $(vol) $(pe) $(density)"  file ${file_name} screen no &
#         title "#step temp oiltemp press oilpress oilpress_stress oilpress_stress_vor vol pe density"

# run 2000000
# write_restart after_equil_restart_*.in
# write_data after_equil_*.in
# compute binchunk oil chunk/atom bin/1d z center 0.6 units box
# fix 1 oil ave/chunk 10000 10 100000 binchunk density/mass file mass.profile ave running
# run 1000000

# write_restart complete_sim_restart_*.in
# write_data complete_sim_*.in

# # run 1000000
# # write_restart in_oil_restart_*.in
# # write_data in_oil_*.in





