
units metal
boundary p p p
atom_style atomic

read_data in.data 

replicate 7 7 7

#read_restart after_heating.lmp

variable P equal 0
variable dt equal 0.001
variable loopVar loop 21

# print "step temp vol pe" file heating.txt screen no 

pair_style eam/alloy
pair_coeff * * Mishin-Ni-Al-2009.eam.alloy Ni Al


velocity all create 300 123123

neighbor 2 bin
neigh_modify every 10 check yes

thermo 1000
thermo_style custom step temp vol press ke pe density

fix 2 all nvt temp 300 2300 $(dt*100)
run 300000
unfix 2

 

timestep $(dt)

# dump_modify 1 append yes 
dump 3 all custom 10000 traj_npt_new.lammpstrj id type x y z 


label ensemble
# reset_timestep 0
variable T equal 2400-${loopVar}*100

fix 1 all npt temp $T $T $(dt*100) iso 0 0 $(dt*1000)
print """
<--------------------------------------------------------------------->
<------------------ Equilibrating at temperature $T ----------------->
<--------------------------------------------------------------------->
"""
run 250000
fix out_file_1 all print 1000 "$(step) $(temp) $(press) $(vol) $(ke) $(pe) $(density)" file cooling_$T.txt screen no title  "step temp press vol ke pe density"

run 100000
unfix out_file_1
unfix 1 
# clear
write_data after_cooling_$T.in
write_restart after_cooling_$T.lmp 
next loopVar
# thermo_modify flush yes
jump in.lmp ensemble


write_data after_cooling_.in
write_restart after_cooling_.lmp 






















