units metal
dimension 3
boundary p p p

lattice fcc 3.5440 
region whole_block block 0 7 0 7 0 7 units lattice
region hot_atoms block 0 7 0 7 0 7 units lattice
create_box 1 whole_block
create_atoms 1 region hot_atoms
variable P equal 0
variable dt equal 0.001


pair_style eam/alloy
pair_coeff * * Co_Zhou04.eam.alloy Co


neighbor 2 bin
neigh_modify every 10 check yes


thermo 500
thermo_style custom step temp vol press ke pe density

timestep $(dt)
variable T equal 6000

velocity all create $T 9823447 

# variable T equal 400


# reset_timestep 0
fix 1 all npt temp $T $T $(dt*100) iso $P $P $(dt*1000)
# fix 1 all nve
# fix 3 all temp/rescale 1000 $T $T 200 1.0

# dump 3 all custom 100 liquid.lammpstrj id type x y z 
run 100000




write_data liquid_$T.in
write_restart liquid_$T.lmp 

























