variable file_name string "npt_octane_ua_graphene.dat"
variable log_file_name string "npt_octane_ua_graphene.log"
variable dump_file_name string "npt_octane_ua_graphene.lammpstrj"

log ${log_file_name}

units real
boundary p p p
atom_style full
pair_style  lj/cut 13.0

bond_style      harmonic
angle_style     harmonic
dihedral_style opls



read_data in.data
include ../Trial_01/oil_graphene.ff

variable  dt equal 1
variable Temp equal 340.0
variable Press equal 100.0
group oil type 2:3
group graphene type 1
group  upper_graphene id 617:1232
group lower_graphene id 1:616
group dilate_group union oil upper_graphene 
velocity oil create ${Temp} 53244 dist gaussian mom yes rot yes
# delete_atoms group graphene bond yes mol yes
# write_data afterdel.data

neighbor 2 bin 
neigh_modify  delay 0 every 10 check yes



timestep ${dt}

fix setfhi upper_graphene setforce 0.0 0.0 NULL 
variable Sz equal lx*ly
# variable fz equal (${Press}*${Sz}*4.0196E-13/count(upper_graphene))
fix avefhi upper_graphene aveforce NULL  NULL -0.00382
fix setflo lower_graphene setforce 0.0 0.0 0.0

variable shi equal -f_setfhi[1]/${Sz}
variable phi equal f_avefhi[3]/${Sz}
variable slo equal f_setflo[1]/${Sz}
variable plo equal -f_setflo[3]/${Sz}

compute oil_temp oil temp
variable oilTemp equal c_oil_temp

compute      oil_press all pressure oil_temp
variable oilPress equal c_oil_press 



thermo          1000
thermo_style    custom step temp c_oil_temp press  c_oil_press pe etotal   lx ly v_shi v_phi v_slo v_plo
# thermo_modify   norm no

fix     npt_1 all nvt temp ${Temp} ${Temp} $(dt*100) 
# fix_modify   npt_1 temp oil_temp  press oil_press 


dump 2 all custom 2000 ${dump_file_name} id mol type x y z 
# dump_modify 2 sort id


fix txt_file_npt all print 1000 "$(step)  $(temp) ${oilTemp} $(press) ${oilPress} $(vol) $(pe) $(density)"  file ${file_name} screen no &
        title "#step temp oiltemp press oilpress vol pe density"

run 3000000
write_restart in_oil_restart_*.in
write_data in_oil_*.in

# run 1000000
# write_restart in_oil_restart_*.in
# write_data in_oil_*.in





